[TITLE]
NUM-06: 3 ft CMP culvert C1, code 5 (mitered to conform to slope), slope 5%, 60 cfs, free outlet

[OPTIONS]
FLOW_UNITS           CFS
INFILTRATION         HORTON
FLOW_ROUTING         DYNWAVE
START_DATE           01/01/2020
START_TIME           00:00:00
REPORT_START_DATE    01/01/2020
REPORT_START_TIME    00:00:00
END_DATE             01/01/2020
END_TIME             02:00:00
REPORT_STEP          00:05:00
WET_STEP             00:05:00
DRY_STEP             00:05:00
ROUTING_STEP         2
VARIABLE_STEP        0

[JUNCTIONS]
J1     100  20       0         0        0
J2     95   10       0         0        0

[OUTFALLS]
O1     90   FREE

[CONDUITS]
C1     J1  J2  100  0.024  0  0  0  0
C2     J2  O1  100  0.013  0  0  0  0

[XSECTIONS]
C1     CIRCULAR 3 0 0 0 1 5
C2     CIRCULAR 4 0 0 0 1

[INFLOWS]
J1  FLOW  ""  FLOW 1.0 1.0 60

[REPORT]
NODES ALL
LINKS ALL

[COORDINATES]
J1 0 0
J2 1 0
O1 2 0
