[TITLE]
IO-12 elliptical pipe 1.2 m high, width left out

[OPTIONS]
FLOW_UNITS     CMS
FLOW_ROUTING   DYNWAVE
START_DATE     01/01/2020
START_TIME     00:00:00
END_DATE       01/01/2020
END_TIME       01:00:00
REPORT_STEP    00:15:00
ROUTING_STEP   5

[JUNCTIONS]
;Name  Elev  MaxDepth  InitDepth  SurDepth  Aponded
J1     100   10        0          0         0

[OUTFALLS]
O1     99    FREE

[CONDUITS]
;Name  From  To  Length  N      Z1  Z2  Q0  Qmax
C1     J1    O1  1000    0.013  0   0   0   0

[XSECTIONS]
;Link  Shape          Geom1  Geom2  Geom3  Geom4
;Geom1 = full height 1.2 m; the width was left out
C1     HORIZ_ELLIPSE  1.2    0      0      0

[INFLOWS]
J1     FLOW  ""  FLOW  1.0  1.0  1

[REPORT]
INPUT  YES
NODES  ALL
LINKS  ALL
