[TITLE]
CRASH-11: AVERAGES YES, SI units, all nodes reported
(inflow at J1 rises to a 1-hour plateau of 0.5 m3/s)

[OPTIONS]
FLOW_UNITS           CMS
FLOW_ROUTING         DYNWAVE
START_DATE           01/01/2020
START_TIME           00:00:00
REPORT_START_DATE    01/01/2020
REPORT_START_TIME    00:00:00
END_DATE             01/01/2020
END_TIME             03:00:00
REPORT_STEP          00:15:00
ROUTING_STEP         5
VARIABLE_STEP        0
ALLOW_PONDING        NO

[JUNCTIONS]
;;Name  Elev  MaxDepth  InitDepth  SurDepth  Aponded
J1      10    3         0          0         0
J2      9     3         0          0         0
J3      8     3         0          0         0

[OUTFALLS]
O1      7     FREE

[CONDUITS]
C1  J1  J2  100  0.013  0  0  0  0
C2  J2  J3  100  0.013  0  0  0  0
C3  J3  O1  100  0.013  0  0  0  0

[XSECTIONS]
C1  CIRCULAR  1.0  0  0  0  1
C2  CIRCULAR  1.0  0  0  0  1
C3  CIRCULAR  1.0  0  0  0  1

[INFLOWS]
J1  FLOW  TS1  FLOW  1.0  1.0

[TIMESERIES]
TS1  0:00  0
TS1  1:00  0.5
TS1  2:00  0.5
TS1  2:30  0
TS1  3:00  0

[REPORT]
INPUT     NO
CONTROLS  NO
AVERAGES  YES
NODES     ALL
LINKS     ALL
