[TITLE]
BND-05: J1 -> C1 (initial flow 3 cfs, inlet offset 4 ft, outlet offset 0) -> J2 -> C2 (3 cfs) -> free outfall

[OPTIONS]
FLOW_UNITS           CFS
INFILTRATION         HORTON
FLOW_ROUTING         DYNWAVE
LINK_OFFSETS         DEPTH
START_DATE           01/01/2020
START_TIME           00:00:00
REPORT_START_DATE    01/01/2020
REPORT_START_TIME    00:00:00
END_DATE             01/01/2020
END_TIME             00:30:00
REPORT_STEP          00:00:10
WET_STEP             00:05:00
DRY_STEP             00:05:00
ROUTING_STEP         1
VARIABLE_STEP        0

[JUNCTIONS]
;;Name Elev MaxDepth InitDepth SurDepth Aponded
J1     10   10       0         0        0
J2     5    10       0         0        0

[OUTFALLS]
O1     4    FREE

[CONDUITS]
;;Name From To Length N InOffset OutOffset InitFlow
C1     J1  J2  500  0.013  4  0  3
C2     J2  O1  500  0.013  0  0  3

[XSECTIONS]
C1     CIRCULAR 2 0 0 0 1
C2     CIRCULAR 2 0 0 0 1

[INFLOWS]
J1  FLOW  ""  FLOW 1.0 1.0 3

[REPORT]
NODES ALL
LINKS ALL

[COORDINATES]
J1 0 0
J2 1 0
O1 2 0
