[TITLE]
NUM-54: horizontal 3 ft pipe, n = 0.015, 1000 ft, full between a fixed 20 ft head and a fixed 10 ft stage (SURCHARGE_METHOD SLOT)

[OPTIONS]
FLOW_UNITS           CFS
FLOW_ROUTING         DYNWAVE
SURCHARGE_METHOD     SLOT
START_DATE           01/01/2020
START_TIME           00:00:00
REPORT_START_DATE    01/01/2020
REPORT_START_TIME    00:00:00
END_DATE             01/01/2020
END_TIME             02:00:00
REPORT_STEP          00:15:00
ROUTING_STEP         2
VARIABLE_STEP        0

[STORAGE]
;;Name Elev MaxD InitD Shape      A1 A2 A0         SurDepth Fevap
T1     0    30   20    FUNCTIONAL 0  0  1000000000 0        0

[OUTFALLS]
;;Name Elev Type  Stage
O1     0    FIXED 10

[CONDUITS]
;;Name From To Length N     InOffset OutOffset InitFlow
C1     T1   O1 1000   0.015 0        0         0

[XSECTIONS]
C1     CIRCULAR 3 0 0 0 1

[REPORT]
LINKS ALL
NODES ALL
