[TITLE]
NUM-09: junction J1 drained only by outlet OL1 (rating q = 1.0*h^0.5, h = J1 depth).
Constant 2 cfs into J1, which starts dry. Equilibrium: 2 = h^0.5 -> h = 4 ft.

[OPTIONS]
FLOW_UNITS           CFS
FLOW_ROUTING         DYNWAVE
START_DATE           01/01/2020
START_TIME           00:00:00
REPORT_START_DATE    01/01/2020
REPORT_START_TIME    00:00:00
END_DATE             01/01/2020
END_TIME             03:00:00
ROUTING_STEP         30
REPORT_STEP          00:15:00
VARIABLE_STEP        0

[JUNCTIONS]
;;Name Elev MaxD InitD SurD Apond
J1     100  10   0     0    0
J2     99   10   0     0    0

[OUTFALLS]
O1     97   FREE   NO

[OUTLETS]
;;Name From To Offset Type             Qcoeff Qexpon Gated
OL1    J1   J2 0      FUNCTIONAL/DEPTH 1.0    0.5    NO

[CONDUITS]
C1     J2   O1   400   0.013   0   0   0   0

[XSECTIONS]
C1     CIRCULAR   1.5   0   0   0   1

[INFLOWS]
J1     FLOW   ""   FLOW   1.0   1.0   2.0

[REPORT]
NODES ALL
LINKS ALL
