[TITLE]
IO-10 one conduit of 300 parallel 1 ft pipes

[OPTIONS]
FLOW_UNITS     CFS
FLOW_ROUTING   DYNWAVE
START_DATE     01/01/2020
START_TIME     00:00:00
END_DATE       01/01/2020
END_TIME       01:00:00
REPORT_STEP    00:15:00
ROUTING_STEP   5

[JUNCTIONS]
;Name  Elev  MaxDepth  InitDepth  SurDepth  Aponded
J1     100   10        0          0         0

[OUTFALLS]
O1     99    FREE

[CONDUITS]
;Name  From  To  Length  N      Z1  Z2  Q0  Qmax
C1     J1    O1  1000    0.013  0   0   0   0

[XSECTIONS]
;Link  Shape     Geom1  Geom2  Geom3  Geom4  Barrels
C1     CIRCULAR  1      0      0      0      300

[INFLOWS]
J1     FLOW  ""  FLOW  1.0  1.0  100

[REPORT]
INPUT  YES
NODES  ALL
LINKS  ALL
