[TITLE]
CON-08: junction J2 receives a MASS-type load of 10 mg/s of P1 for 2 h but
no water, so it stays dry. The load (0.159 lb) has no water to carry it;
the quality mass balance must still close.

[OPTIONS]
FLOW_UNITS           CFS
INFILTRATION         HORTON
FLOW_ROUTING         DYNWAVE
START_DATE           01/01/2020
START_TIME           00:00:00
REPORT_START_DATE    01/01/2020
REPORT_START_TIME    00:00:00
END_DATE             01/01/2020
END_TIME             02:00:00
DRY_STEP             00:05:00
WET_STEP             00:05:00
ROUTING_STEP         10
REPORT_STEP          00:30:00

[JUNCTIONS]
J2   0   5   0   0   0

[OUTFALLS]
O2   0   FREE

[CONDUITS]
C2  J2   O2  400  0.013  0  0  0

[XSECTIONS]
C2  CIRCULAR  1  0  0  0  1

[POLLUTANTS]
P1  MG/L  0  0  0  0  NO  *  0  0  0

[INFLOWS]
;;Node Param TimeSeries Type Mfactor Sfactor Baseline
J2  P1  ""  MASS  1.0  1.0  10

[REPORT]
NODES ALL
LINKS ALL
