[TITLE]
NUM-33: Horton / Modified Horton with Fmax = 0.5 in and 1 in of rain.
H1, M1: decaying curve (f0 3, fmin 0.5 in/hr, decay 4/hr) - reference
H2, M2: constant rate f0 = fmin = 3 in/hr
H3, M3: constant rate through decay = 0

[OPTIONS]
FLOW_UNITS           CFS
INFILTRATION         HORTON
FLOW_ROUTING         KINWAVE
START_DATE           06/01/2020
START_TIME           00:00:00
REPORT_START_DATE    06/01/2020
REPORT_START_TIME    00:00:00
END_DATE             06/01/2020
END_TIME             06:00:00
WET_STEP             00:05:00
DRY_STEP             01:00:00
REPORT_STEP          00:05:00
ROUTING_STEP         0:00:30
IGNORE_ROUTING       YES

[EVAPORATION]
CONSTANT         0.0

[RAINGAGES]
G1   INTENSITY 1:00 1.0 TIMESERIES R1

[SUBCATCHMENTS]
;;Name Gage Outlet Area %Imperv Width %Slope CurbLen
H1   G1   O1   1.0   0   100   1.0   0
H2   G1   O1   1.0   0   100   1.0   0
H3   G1   O1   1.0   0   100   1.0   0
M1   G1   O1   1.0   0   100   1.0   0
M2   G1   O1   1.0   0   100   1.0   0
M3   G1   O1   1.0   0   100   1.0   0

[SUBAREAS]
;;Name N-Imperv N-Perv S-Imperv S-Perv PctZero RouteTo
H1   0.01   0.1   0.05   0.05   0   OUTLET
H2   0.01   0.1   0.05   0.05   0   OUTLET
H3   0.01   0.1   0.05   0.05   0   OUTLET
M1   0.01   0.1   0.05   0.05   0   OUTLET
M2   0.01   0.1   0.05   0.05   0   OUTLET
M3   0.01   0.1   0.05   0.05   0   OUTLET

[INFILTRATION]
;;Name f0 fmin decay drytime(days) Fmax(in) method
H1   3.0   0.5   4   7   0.5   HORTON
H2   3.0   3.0   4   7   0.5   HORTON
H3   3.0   0.5   0   7   0.5   HORTON
M1   3.0   0.5   4   7   0.5   MODIFIED_HORTON
M2   3.0   3.0   4   7   0.5   MODIFIED_HORTON
M3   3.0   0.5   0   7   0.5   MODIFIED_HORTON

[OUTFALLS]
O1   0   FREE

[TIMESERIES]
;1 in/hr for one hour
R1   0:00   1.0
R1   1:00   0.0

[REPORT]
SUBCATCHMENTS ALL
