[TITLE]
IO-16: the same model with [XSECTIONS] after all link sections

[OPTIONS]
FLOW_UNITS           CFS
FLOW_ROUTING         DYNWAVE
START_DATE           01/01/2020
START_TIME           00:00:00
END_DATE             01/01/2020
END_TIME             02:00:00
REPORT_STEP          00:15:00
ROUTING_STEP         5

[JUNCTIONS]
;;Name  Elev  MaxDepth  InitDepth  SurDepth  Aponded
J1      100   10        0          0         0
J2      99    10        0          0         0

[OUTFALLS]
;;Name  Elev  Type
O1      95    FREE

[CONDUITS]
;;Name  From  To  Length  Roughness  InOffset  OutOffset  InitFlow
C1      J1    J2  400     0.013      0         0         0

[WEIRS]
;;Name  From  To  Type        CrestHt  Cd    Gated
W1      J2    O1  TRANSVERSE  0        3.33  NO

[XSECTIONS]
;; C1 has 2 barrels.
;;Link  Shape      Geom1  Geom2  Geom3  Geom4  Barrels
C1      CIRCULAR   1      0      0      0      2
W1      RECT_OPEN  3      5      0      0

[INFLOWS]
;;Node  Constituent  Tseries  Type  Mfactor  Sfactor  Baseline
J1      FLOW         ""       FLOW  1.0      1.0      5.0

[REPORT]
NODES ALL
LINKS ALL
