[TITLE]
IO-41: control-rule expression E1 = 2 + . has a decimal point with no
digits. It is not a number and must be rejected as an invalid math
expression.

[OPTIONS]
FLOW_UNITS           CFS
FLOW_ROUTING         KINWAVE
START_DATE           01/01/2020
START_TIME           00:00:00
REPORT_START_DATE    01/01/2020
REPORT_START_TIME    00:00:00
END_DATE             01/01/2020
END_TIME             01:00:00
DRY_STEP             00:05:00
WET_STEP             00:05:00
ROUTING_STEP         30
REPORT_STEP          00:15:00

[JUNCTIONS]
;;Name  Elev  MaxDepth  InitDepth  SurDepth  Aponded
J1      2     5         0          0         0

[OUTFALLS]
;;Name  Elev  Type
O1      0     FREE

[CONDUITS]
;;Name  From  To  Length  Roughness  InOffset  OutOffset  InitFlow
C1      J1    O1  400     0.013      0         0          0

[XSECTIONS]
;;Link  Shape     Geom1  Geom2  Geom3  Geom4  Barrels
C1      CIRCULAR  1      0      0      0      1

[DWF]
;;Node  Constituent  Baseline
J1      FLOW         1

[CONTROLS]
EXPRESSION E1 = 2 + .

[REPORT]
NODES ALL
LINKS ALL
