[TITLE]
NUM-47: closed storage pond SU1 (1000 ft2, 4 ft deep = 4000 ft3) starts with
TP = 10 mg/L (2.495 lb). Treatment TP C = 0 removes all of it in the first
routing step. Nothing enters or leaves. DYNWAVE with the default variable
step: the first step is 0.5 s, the following ones 10 s.
Expected: Mass Reacted = Initial Stored Mass = 2.495 lb.

[OPTIONS]
FLOW_UNITS           CFS
INFILTRATION         HORTON
FLOW_ROUTING         DYNWAVE
START_DATE           01/01/2020
START_TIME           00:00:00
REPORT_START_DATE    01/01/2020
REPORT_START_TIME    00:00:00
END_DATE             01/01/2020
END_TIME             02:00:00
DRY_STEP             00:05:00
WET_STEP             00:05:00
ROUTING_STEP         10
REPORT_STEP          00:30:00

[JUNCTIONS]
J2   0   5   0   0   0

[OUTFALLS]
O1   0   FREE

[STORAGE]
;;Name Elev MaxDepth InitDepth Shape a b c SurDepth Fevap
SU1  0  10  4  FUNCTIONAL  0  0  1000  0  0

[CONDUITS]
C1  SU1  J2  400  0.013  6  0  0
C2  J2   O1  400  0.013  0  0  0

[XSECTIONS]
C1  CIRCULAR  1  0  0  0  1
C2  CIRCULAR  1  0  0  0  1

[POLLUTANTS]
;;Name Units Crain Cgw Crdii Kdecay SnowOnly CoPollut CoFrac Cdwf Cinit
TP   MG/L  0  0  0  0  NO  *  0  0  10

[TREATMENT]
SU1  TP  C = 0

[REPORT]
NODES ALL
LINKS ALL
