[TITLE]
NUM-22: a transect that inherits its Manning's n ("NC 0 0 0") after a meandering transect
T1: meander factor 2.0. T2: NC 0 0 0, no meander. T3: same as T2 with the n values written out.
All three transects have the same geometry.

[OPTIONS]
FLOW_UNITS CFS
FLOW_ROUTING DYNWAVE
START_DATE 01/01/2020
START_TIME 00:00:00
END_DATE 01/01/2020
END_TIME 02:00:00
REPORT_STEP 00:15:00
ROUTING_STEP 5

[JUNCTIONS]
;Name Elev MaxDepth InitDepth SurDepth Aponded
J1 100 10 0 0 0
J2 100 10 0 0 0
J3 100 10 0 0 0

[OUTFALLS]
O1 99 FREE
O2 99 FREE
O3 99 FREE

[CONDUITS]
;Name From To Length N InOffset OutOffset InitFlow MaxFlow
C1 J1 O1 1000 0.03 0 0 0 0
C2 J2 O2 1000 0.03 0 0 0 0
C3 J3 O3 1000 0.03 0 0 0 0

[XSECTIONS]
;Link Shape Transect Geom2 Geom3 Geom4 Barrels
C1 IRREGULAR T1 0 0 0 1
C2 IRREGULAR T2 0 0 0 1
C3 IRREGULAR T3 0 0 0 1

[INFLOWS]
;Node Constituent TimeSeries Type Mfactor Sfactor Baseline
J1 FLOW "" FLOW 1.0 1.0 20
J2 FLOW "" FLOW 1.0 1.0 20
J3 FLOW "" FLOW 1.0 1.0 20

[TRANSECTS]
;X1 Name Nsta Xleft Xright 0 0 Lfactor Wfactor Eoffset
NC 0.05 0.05 0.03
X1 T1 4 10 30 0 0 2.0 0 0
GR 105 0 100 10 100 30 105 40
NC 0 0 0
X1 T2 4 10 30 0 0 0 0 0
GR 105 0 100 10 100 30 105 40
NC 0.05 0.05 0.03
X1 T3 4 10 30 0 0 0 0 0
GR 105 0 100 10 100 30 105 40

[REPORT]
INPUT YES
NODES ALL
LINKS ALL
