[TITLE]
NUM-15: FUNCTIONAL storage, Area = 100 + 50 * Depth^(-2) ft2. The volume integral from depth 0 diverges: must be rejected.

[OPTIONS]
FLOW_UNITS           CFS
FLOW_ROUTING         DYNWAVE
START_DATE           01/01/2020
START_TIME           00:00:00
REPORT_START_DATE    01/01/2020
REPORT_START_TIME    00:00:00
END_DATE             01/01/2020
END_TIME             02:00:00
REPORT_STEP          00:15:00
ROUTING_STEP         5

[STORAGE]
;;Name Elev MaxDepth InitDepth Shape      A1 A2    A0  Ysur Fevap
S1     0    10       1         FUNCTIONAL 50 -2 100 0    0

[OUTFALLS]
O1     0    FREE NO

[ORIFICES]
OR1    S1   O1  SIDE 0 0.65 NO 0

[XSECTIONS]
OR1    CIRCULAR 0.5 0 0 0

[INFLOWS]
S1     FLOW ""  FLOW 1 1 2

[REPORT]
NODES ALL
