[TITLE]
CON-17 custom HORIZ_ELLIPSE 2 ft high, 6 ft wide: 15 cfs hydrograph through three flat conduits

[OPTIONS]
FLOW_UNITS CFS
FLOW_ROUTING DYNWAVE
START_DATE 01/01/2020
START_TIME 00:00:00
END_DATE 01/01/2020
END_TIME 08:00:00
REPORT_STEP 00:05:00
ROUTING_STEP 5

[JUNCTIONS]
J1 100.3 6 0 0 0
J2 100.2 6 0 0 0
J3 100.1 6 0 0 0

[OUTFALLS]
O1 100 FREE

[CONDUITS]
C1 J1 J2 2000 0.013 0 0 0 0
C2 J2 J3 2000 0.013 0 0 0 0
C3 J3 O1 2000 0.013 0 0 0 0

[XSECTIONS]
C1 HORIZ_ELLIPSE 2 6 0 0 1
C2 HORIZ_ELLIPSE 2 6 0 0 1
C3 HORIZ_ELLIPSE 2 6 0 0 1

[INFLOWS]
J1 FLOW HYD FLOW 1.0 1.0

[TIMESERIES]
HYD 01/01/2020 00:00 0
HYD 01/01/2020 01:00 15
HYD 01/01/2020 03:00 15
HYD 01/01/2020 04:00 0
HYD 01/01/2020 08:00 0

[REPORT]
INPUT YES
NODES ALL
LINKS ALL
