[TITLE]
NUM-20: standard arch pipes, corrugated steel 3 x 1 in, size codes 30, 31 and 32
Three geometrically similar sections (rise x span 31 x 40, 36 x 46, 41 x 53 in)

[OPTIONS]
FLOW_UNITS CFS
FLOW_ROUTING DYNWAVE
START_DATE 01/01/2020
START_TIME 00:00:00
END_DATE 01/01/2020
END_TIME 00:10:00
REPORT_STEP 00:05:00
ROUTING_STEP 5

[JUNCTIONS]
;Name Elev MaxDepth InitDepth SurDepth Aponded
J30 101 8 0 0 0
J31 101 8 0 0 0
J32 101 8 0 0 0

[OUTFALLS]
O30 100 FREE
O31 100 FREE
O32 100 FREE

[CONDUITS]
;Name From To Length N InOffset OutOffset InitFlow MaxFlow
A30 J30 O30 1000 0.024 0 0 0 0
A31 J31 O31 1000 0.024 0 0 0 0
A32 J32 O32 1000 0.024 0 0 0 0

[XSECTIONS]
;Link Shape FullHeight MaxWidth SizeCode Geom4 Barrels
A30 ARCH 2.583 3.333 30 0 1
A31 ARCH 3.000 3.833 31 0 1
A32 ARCH 3.417 4.417 32 0 1

[REPORT]
INPUT YES
