[TITLE]
NUM-43: Hargreaves (TEMPERATURE) evaporation at latitude 70 N, 1-5 December (polar night)

[OPTIONS]
FLOW_UNITS       CFS
INFILTRATION     HORTON
FLOW_ROUTING     KINWAVE
START_DATE       12/01/2020
START_TIME       00:00:00
END_DATE         12/05/2020
END_TIME         00:00:00
REPORT_STEP      01:00:00
WET_STEP         00:05:00
DRY_STEP         00:05:00
ROUTING_STEP     60

[TEMPERATURE]
;Daily Tmax 60 F, Tmin 40 F every day
FILE NUM-43_clim.txt
;            DIVtemp ATIwt RNM elev lat dtlong
SNOWMELT     34      0.5   0.6 0    70   0

[EVAPORATION]
TEMPERATURE

[RAINGAGES]
G1 INTENSITY 1:00 1.0 TIMESERIES TS1

[TIMESERIES]
;0.5 in of rain in the first hour
TS1 12/01/2020 00:00 0.5
TS1 12/01/2020 01:00 0.0

[SUBCATCHMENTS]
;Name Gage Outlet Area %Imperv Width Slope CurbLen
S1    G1   O1     10   50      500   1     0

[SUBAREAS]
S1 0.01 0.1 0.2 0.2 0 OUTLET

[INFILTRATION]
;No infiltration: rain leaves as runoff or evaporation
S1 0 0 4 7 0

[OUTFALLS]
O1 0 FREE

[REPORT]
SUBCATCHMENTS ALL
