[TITLE]
IO-26: SI units, 2 h of rain on snow at 10 C; monthly wind speed of 32.18 km/hr

[OPTIONS]
FLOW_UNITS       CMS
INFILTRATION     HORTON
FLOW_ROUTING     KINWAVE
START_DATE       01/01/2020
START_TIME       00:00:00
END_DATE         01/01/2020
END_TIME         02:00:00
REPORT_STEP      00:15:00
WET_STEP         00:05:00
DRY_STEP         00:05:00
ROUTING_STEP     60

[EVAPORATION]
CONSTANT 0.0

[TEMPERATURE]
;user climate file: Tmax = Tmin = 10 C, no evaporation, wind 32.18 km/hr every day
FILE IO-26_clim.txt
WINDSPEED MONTHLY 32.18 32.18 32.18 32.18 32.18 32.18 32.18 32.18 32.18 32.18 32.18 32.18
;divide temp (C), ATI weight, neg. melt ratio, elevation, latitude, longitude corr.
SNOWMELT 1.1111 0.5 0.6 0 40 0

[RAINGAGES]
G1 INTENSITY 1:00 1.0 TIMESERIES TS1

[TIMESERIES]
;12.7 mm/hr of rain for 2 hours
TS1 01/01/2020 00:00 12.7
TS1 01/01/2020 02:00 0.0

[SNOWPACKS]
;Name Surface   Cmin Cmax Tbase FWF SD0 FW0 SD100
SP1   PLOWABLE    0.1 0.1 0 0 0   0 0
SP1   IMPERVIOUS  0.1 0.1 0 0 0   0 0
SP1   PERVIOUS    0.1 0.1 0 0 100 0 0

[SUBCATCHMENTS]
;Name Gage Outlet Area %Imperv Width Slope CurbLen SnowPack
S1    G1   O1     4    0       150   1     0       SP1

[SUBAREAS]
S1 0.01 0.1 0 0 0 OUTLET

[INFILTRATION]
S1 0 0 4 7 0

[OUTFALLS]
O1 0 FREE
