[TITLE]
CRASH-17: a small model whose node IDs (J1, O1) are 2 characters long

[OPTIONS]
FLOW_UNITS           CFS
INFILTRATION         HORTON
FLOW_ROUTING         DYNWAVE
START_DATE           01/01/2020
START_TIME           00:00:00
REPORT_START_DATE    01/01/2020
REPORT_START_TIME    00:00:00
END_DATE             01/01/2020
END_TIME             01:00:00
WET_STEP             00:01:00
DRY_STEP             00:01:00
ROUTING_STEP         0:00:30
REPORT_STEP          00:15:00

[RAINGAGES]
G1   INTENSITY 0:15 1.0 TIMESERIES RAIN

[SUBCATCHMENTS]
S1   G1   J1   10   50   500   0.5   0

[SUBAREAS]
S1   0.01  0.1  0.05  0.05  25  OUTLET

[INFILTRATION]
S1   3.0  0.5  4  7  0

[JUNCTIONS]
J1   100   10   0   0   0

[OUTFALLS]
O1   99    FREE   NO

[CONDUITS]
C1   J1   O1   400   0.013   0   0   0   0

[XSECTIONS]
C1   CIRCULAR   1.5   0   0   0   1

[TIMESERIES]
RAIN   0:00   1.0
RAIN   1:00   1.0

[REPORT]
INPUT NO
CONTROLS NO
