[TITLE]
API-12: dynamic wave with a variable time step (ROUTING_STEP 30 s, VARIABLE_STEP 0.75)

[OPTIONS]
FLOW_UNITS           CFS
INFILTRATION         HORTON
FLOW_ROUTING         DYNWAVE
START_DATE           01/01/2020
START_TIME           00:00:00
REPORT_START_DATE    01/01/2020
REPORT_START_TIME    00:00:00
END_DATE             01/01/2020
END_TIME             03:00:00
WET_STEP             00:01:00
DRY_STEP             00:05:00
ROUTING_STEP         0:00:30
VARIABLE_STEP        0.75
MINIMUM_STEP         0.5
REPORT_STEP          00:15:00

[RAINGAGES]
G1   INTENSITY 0:15 1.0 TIMESERIES RAIN

[SUBCATCHMENTS]
S1   G1   J1   40   90   1000   1.0   0

[SUBAREAS]
S1   0.012  0.1  0.05  0.05  25  OUTLET

[INFILTRATION]
S1   3.0  0.5  4  7  0

[JUNCTIONS]
J1   100   8   0   0   0
J2   99.8  8   0   0   0

[OUTFALLS]
O1   99.5  FREE   NO

[CONDUITS]
C1   J1   J2   100   0.013   0   0   0   0
C2   J2   O1   100   0.013   0   0   0   0

[XSECTIONS]
C1   CIRCULAR   2.0   0   0   0   1
C2   CIRCULAR   2.0   0   0   0   1

[TIMESERIES]
RAIN   0:00   0
RAIN   0:30   2.0
RAIN   1:30   0.5
RAIN   2:00   0
RAIN   3:00   0

[REPORT]
INPUT NO
CONTROLS NO
