[TITLE]
CRASH-04: a [CURVES] line with only the curve name

[OPTIONS]
FLOW_UNITS           CFS
FLOW_ROUTING         DYNWAVE
START_DATE           01/01/2020
START_TIME           00:00:00
END_DATE             01/01/2020
END_TIME             01:00:00
REPORT_STEP          00:15:00
ROUTING_STEP         10

[JUNCTIONS]
;;Name  Elev  MaxDepth  InitDepth  SurDepth  Aponded
J1      100   5         0          0         0

[OUTFALLS]
;;Name  Elev  Type
O1      99    FREE

[CONDUITS]
;;Name  From  To  Length  Roughness  InOffset  OutOffset  InitFlow
C1      J1    O1  400     0.013      0         0         0

[XSECTIONS]
;;Link  Shape     Geom1  Geom2  Geom3  Geom4  Barrels
C1      CIRCULAR  1.5    0      0      0      1

[INFLOWS]
;;Node  Constituent  Tseries  Type  Mfactor  Sfactor  Baseline
J1      FLOW         ""       FLOW  1.0      1.0      1.0

[CURVES]
;; A curve's first line needs at least its name and type: this line is
;; "too few items" (ERROR 203). The same line results when a row longer
;; than 1023 characters is split by the reader and its tail starts with
;; something that is not a curve name.
;;Name  Type  X  Y
CV1

[REPORT]
NODES ALL
