[TITLE]
IO-01: the inflow time series TS1 has the value "nan" at 2:00 (kinematic wave)

[OPTIONS]
FLOW_UNITS           CFS
FLOW_ROUTING         KINWAVE
START_DATE           01/01/2020
START_TIME           00:00:00
REPORT_START_DATE    01/01/2020
REPORT_START_TIME    00:00:00
END_DATE             01/01/2020
END_TIME             06:00:00
REPORT_STEP          00:15:00
ROUTING_STEP         5
WET_STEP             00:05:00
DRY_STEP             01:00:00

[JUNCTIONS]
;;Name Elev MaxDepth InitDepth SurDepth Aponded
J1   100   10   0   0   0
J2    99   10   0   0   0

[OUTFALLS]
O1    98   FREE   NO

[CONDUITS]
;;Name From To Length Roughness InOffset OutOffset InitFlow MaxFlow
C1   J1   J2   400   0.013   0   0   0   0
C2   J2   O1   400   0.013   0   0   0   0

[XSECTIONS]
C1   CIRCULAR   2   0   0   0   1
C2   CIRCULAR   2   0   0   0   1

[INFLOWS]
;;Node Constituent Series
J1   FLOW   TS1

[TIMESERIES]
;;Name Time Value
TS1  0:00  5.0
TS1  2:00  nan
TS1  4:00  5.0

[REPORT]
NODES ALL
LINKS ALL
