[TITLE]
CRASH-03: a storage curve declared with its type but no data points

[OPTIONS]
FLOW_UNITS           CFS
FLOW_ROUTING         DYNWAVE
START_DATE           01/01/2020
START_TIME           00:00:00
END_DATE             01/01/2020
END_TIME             01:00:00
REPORT_STEP          00:15:00
ROUTING_STEP         10

[JUNCTIONS]
;;Name  Elev  MaxDepth  InitDepth  SurDepth  Aponded
J1      100   5         0          0         0

[STORAGE]
;;Name  Elev  MaxDepth  InitDepth  Shape    Curve  Fevap
SU1     98    10        0          TABULAR  CV1    0

[OUTFALLS]
;;Name  Elev  Type
O1      90    FREE

[CONDUITS]
;;Name  From  To   Length  Roughness  InOffset  OutOffset  InitFlow
C1      J1    SU1  400     0.013      0         0         0
C2      SU1   O1   400     0.013      0         0         0

[XSECTIONS]
;;Link  Shape     Geom1  Geom2  Geom3  Geom4  Barrels
C1      CIRCULAR  1.5    0      0      0      1
C2      CIRCULAR  1.5    0      0      0      1

[INFLOWS]
;;Node  Constituent  Tseries  Type  Mfactor  Sfactor  Baseline
J1      FLOW         ""       FLOW  1.0      1.0      1.0

[CURVES]
;; The first line of a curve may hold only its name and type, with the
;; points on the following lines. Here no points follow.
;;Name  Type     X  Y
CV1     Storage

[REPORT]
NODES ALL
