[TITLE]
NUM-59: two storage units and no links. Each receives 1 cfs for 6 hours
(21,600 ft3). S1 is sealed; S2 loses water by exfiltration.

[OPTIONS]
FLOW_UNITS           CFS
FLOW_ROUTING         KINWAVE
START_DATE           01/01/2020
START_TIME           00:00:00
REPORT_START_DATE    01/01/2020
REPORT_START_TIME    00:00:00
END_DATE             01/01/2020
END_TIME             06:00:00
REPORT_STEP          00:15:00
WET_STEP             00:05:00
DRY_STEP             01:00:00
ROUTING_STEP         10

[STORAGE]
;;     Elev MaxDepth InitDepth Shape      Coeff Expon Const SurDepth Fevap Psi Ksat IMD
;; 10,000 ft2 of constant area; S2 exfiltrates with Ksat 0.5 in/hr
S1     100  10       0         FUNCTIONAL 0     0     10000 0        0
S2     100  10       0         FUNCTIONAL 0     0     10000 0        0     0   0.5  0

[INFLOWS]
;;Node Param TSeries Type Mfactor Sfactor Baseline
S1     FLOW  ""      FLOW 1.0     1.0     1.0
S2     FLOW  ""      FLOW 1.0     1.0     1.0

[REPORT]
NODES ALL
