[TITLE]
IO-05: series TS1 (2 cfs from 0:00 to 6:00) written as one line of 1098 characters

[OPTIONS]
FLOW_UNITS           CFS
FLOW_ROUTING         KINWAVE
START_DATE           01/01/2020
START_TIME           00:00:00
REPORT_START_DATE    01/01/2020
REPORT_START_TIME    00:00:00
END_DATE             01/01/2020
END_TIME             06:00:00
REPORT_STEP          00:15:00
WET_STEP             00:05:00
DRY_STEP             01:00:00
ROUTING_STEP         30

[JUNCTIONS]
;;Name Elev MaxDepth InitDepth SurDepth Aponded
J1   10   5   0   0   0

[OUTFALLS]
O1   0   FREE   NO

[CONDUITS]
;;Name From To Length Roughness InOffset OutOffset
C1   J1   O1   100   0.013   0   0   0   0

[XSECTIONS]
C1   CIRCULAR   1   0   0   0   1

[INFLOWS]
;;Node Constituent Series
J1   FLOW   TS1

[TIMESERIES]
TS1 00:00:00 2.000 00:05:00 2.000 00:10:00 2.000 00:15:00 2.000 00:20:00 2.000 00:25:00 2.000 00:30:00 2.000 00:35:00 2.000 00:40:00 2.000 00:45:00 2.000 00:50:00 2.000 00:55:00 2.000 01:00:00 2.000 01:05:00 2.000 01:10:00 2.000 01:15:00 2.000 01:20:00 2.000 01:25:00 2.000 01:30:00 2.000 01:35:00 2.000 01:40:00 2.000 01:45:00 2.000 01:50:00 2.000 01:55:00 2.000 02:00:00 2.000 02:05:00 2.000 02:10:00 2.000 02:15:00 2.000 02:20:00 2.000 02:25:00 2.000 02:30:00 2.000 02:35:00 2.000 02:40:00 2.000 02:45:00 2.000 02:50:00 2.000 02:55:00 2.000 03:00:00 2.000 03:05:00 2.000 03:10:00 2.000 03:15:00 2.000 03:20:00 2.000 03:25:00 2.000 03:30:00 2.000 03:35:00 2.000 03:40:00 2.000 03:45:00 2.000 03:50:00 2.000 03:55:00 2.000 04:00:00 2.000 04:05:00 2.000 04:10:00 2.000 04:15:00 2.000 04:20:00 2.000 04:25:00 2.000 04:30:00 2.000 04:35:00 2.000 04:40:00 2.000 04:45:00 2.000 04:50:00 2.000 04:55:00 2.000 05:00:00 2.000 05:05:00 2.000 05:10:00 2.000 05:15:00 2.000 05:20:00 2.000 05:25:00 2.000 05:30:00 2.000 05:35:00 2.000 05:40:00 2.000 05:45:00 2.000 05:50:00 2.000 05:55:00 2.000 06:00:00 2.000

[REPORT]
NODES ALL
LINKS ALL
