[TITLE]
NUM-07: Hazen-Williams force mains (C = 130) of 1, 0.5 and 4 ft diameter, 1000 ft at 0.1%, dynamic wave

[OPTIONS]
FLOW_UNITS           CFS
FLOW_ROUTING         DYNWAVE
FORCE_MAIN_EQUATION  H-W
START_DATE           01/01/2020
START_TIME           00:00:00
REPORT_START_DATE    01/01/2020
REPORT_START_TIME    00:00:00
END_DATE             01/01/2020
END_TIME             01:00:00
REPORT_STEP          00:15:00
ROUTING_STEP         5

[JUNCTIONS]
;;Name Elev MaxDepth InitDepth SurDepth Aponded
J1     101  20       0         0        0
J2     101  20       0         0        0
J3     101  20       0         0        0

[OUTFALLS]
O1     100  FREE
O2     100  FREE
O3     100  FREE

[CONDUITS]
;;Name From To Length N InOffset OutOffset InitFlow
FM1    J1   O1 1000   0.013 0 0 0
FM05   J2   O2 1000   0.013 0 0 0
FM4    J3   O3 1000   0.013 0 0 0

[XSECTIONS]
;;Link Shape      Diameter C-factor
FM1    FORCE_MAIN 1        130  0 0 1
FM05   FORCE_MAIN 0.5      130  0 0 1
FM4    FORCE_MAIN 4        130  0 0 1

[INFLOWS]
J1  FLOW  ""  FLOW 1.0 1.0 0.1
J2  FLOW  ""  FLOW 1.0 1.0 0.1
J3  FLOW  ""  FLOW 1.0 1.0 0.1

[REPORT]
INPUT YES
LINKS ALL
