[TITLE]
BND-07: 60 cfs enters at J2 and flows back through culvert C1 (3 ft, code 1, 60 ft, inverts 100.00 -> 100.02, adverse slope) to J1, which drains to O1

[OPTIONS]
FLOW_UNITS           CFS
FLOW_ROUTING         DYNWAVE
START_DATE           01/01/2020
START_TIME           00:00:00
REPORT_START_DATE    01/01/2020
REPORT_START_TIME    00:00:00
END_DATE             01/01/2020
END_TIME             02:00:00
REPORT_STEP          00:05:00
WET_STEP             00:05:00
DRY_STEP             00:05:00
ROUTING_STEP         2
VARIABLE_STEP        0

[JUNCTIONS]
J1     100  20       0         0        0
J2     100.02 20      0         0        0

[OUTFALLS]
O1     90   FREE

[CONDUITS]
C1     J1  J2  60   0.013  0  0  0  0
C0     J1  O1  100  0.013  0  0  0  0

[XSECTIONS]
C1     CIRCULAR 3 0 0 0 1 1
C0     CIRCULAR 5 0 0 0 1

[INFLOWS]
J2  FLOW  ""  FLOW 1.0 1.0 60

[REPORT]
NODES ALL
LINKS ALL
