[TITLE]
IO-13 three conduits with invalid cross-section geometry

[OPTIONS]
FLOW_UNITS     CFS
FLOW_ROUTING   DYNWAVE
START_DATE     01/01/2020
START_TIME     00:00:00
END_DATE       01/01/2020
END_TIME       01:00:00
REPORT_STEP    00:15:00
ROUTING_STEP   5

[JUNCTIONS]
;Name  Elev  MaxDepth  InitDepth  SurDepth  Aponded
J1     100   10        0          0         0
J2     100   10        0          0         0
J3     100   10        0          0         0

[OUTFALLS]
O1     99    FREE
O2     99    FREE
O3     99    FREE

[CONDUITS]
;Name  From  To  Length  N      Z1  Z2  Q0  Qmax
C1     J1    O1  1000    0.013  0   0   0   0
C2     J2    O2  1000    0.013  0   0   0   0
C3     J3    O3  1000    0.013  0   0   0   0

[XSECTIONS]
;Link  Shape            Geom1  Geom2  Geom3  Geom4
;C1: sediment depth 3 ft in a 2 ft pipe
;C2: zero diameter
;C3: elliptical size code 99 (there are 23)
C1     FILLED_CIRCULAR  2      3      0      0
C2     CIRCULAR         0      0      0      0
C3     HORIZ_ELLIPSE    2      3.17   99     0

[REPORT]
INPUT  YES
