[TITLE]
NUM-25: on-grade 1-ft curb opening inlets in a depressed-gutter street (HEC-22
Street2: Sx 2%, a 0.0833 ft, W 2 ft, n 0.016, SL 1%). Four identical streets
carry 0.05, 0.08, 0.10 and 0.50 cfs. At the three low flows the spread stays
inside the 2-ft gutter.

[OPTIONS]
FLOW_UNITS CFS
FLOW_ROUTING DYNWAVE
LINK_OFFSETS DEPTH
START_DATE 07/27/2020
START_TIME 00:00:00
END_DATE 07/27/2020
END_TIME 03:00:00
REPORT_STEP 00:15:00
WET_STEP 00:05:00
DRY_STEP 01:00:00
ROUTING_STEP 0:00:10

[JUNCTIONS]
;;Name  Elev  MaxDepth  InitDepth  SurDepth  Aponded
U1  100  0  0  0  0
B1   96  0  0  0  0
C1   90  3  0  0  0
U2  100  0  0  0  0
B2   96  0  0  0  0
C2   90  3  0  0  0
U3  100  0  0  0  0
B3   96  0  0  0  0
C3   90  3  0  0  0
U4  100  0  0  0  0
B4   96  0  0  0  0
C4   90  3  0  0  0

[OUTFALLS]
O1   92  FREE NO
X1   89  FREE NO
O2   92  FREE NO
X2   89  FREE NO
O3   92  FREE NO
X3   89  FREE NO
O4   92  FREE NO
X4   89  FREE NO

[CONDUITS]
;;Name  From  To  Length  N  InOff  OutOff  InitQ  MaxQ
S1a  U1  B1  400  0.016  0  0  0  0
S1b  B1  O1  400  0.016  0  0  0  0
P1   C1  X1  400  0.010  0  0  0  0
S2a  U2  B2  400  0.016  0  0  0  0
S2b  B2  O2  400  0.016  0  0  0  0
P2   C2  X2  400  0.010  0  0  0  0
S3a  U3  B3  400  0.016  0  0  0  0
S3b  B3  O3  400  0.016  0  0  0  0
P3   C3  X3  400  0.010  0  0  0  0
S4a  U4  B4  400  0.016  0  0  0  0
S4b  B4  O4  400  0.016  0  0  0  0
P4   C4  X4  400  0.010  0  0  0  0

[XSECTIONS]
S1a  STREET    Street2  0  0  0  1
S1b  STREET    Street2  0  0  0  1
P1   CIRCULAR  2        0  0  0  1
S2a  STREET    Street2  0  0  0  1
S2b  STREET    Street2  0  0  0  1
P2   CIRCULAR  2        0  0  0  1
S3a  STREET    Street2  0  0  0  1
S3b  STREET    Street2  0  0  0  1
P3   CIRCULAR  2        0  0  0  1
S4a  STREET    Street2  0  0  0  1
S4b  STREET    Street2  0  0  0  1
P4   CIRCULAR  2        0  0  0  1

[STREETS]
;;Name   Tcrown  Hcurb  Sx  nRoad  a      W  Sides  Tback  Sback  nBack
Street2  20      0.5    2   0.016  .0833  2  1      0      0      0

[INLETS]
;;Name       Type  Length  Height  Throat
CurbOpening  CURB  1.0     0.4     HORIZONTAL

[INLET_USAGE]
;;Link  Inlet        CaptureNode
S1a   CurbOpening  C1
S2a   CurbOpening  C2
S3a   CurbOpening  C3
S4a   CurbOpening  C4

[INFLOWS]
;;Node  Param  TSeries  Type  Mfactor  Sfactor  Baseline
U1  FLOW  ""  FLOW  1.0  1.0  0.05
U2  FLOW  ""  FLOW  1.0  1.0  0.08
U3  FLOW  ""  FLOW  1.0  1.0  0.1
U4  FLOW  ""  FLOW  1.0  1.0  0.5

[REPORT]
INPUT NO
NODES ALL
LINKS ALL
