[TITLE]
IO-19: invalid: two land uses cover 60 % and 70 % of S1 (130 % in total)

[OPTIONS]
FLOW_UNITS           CFS
INFILTRATION         HORTON
FLOW_ROUTING         KINWAVE
START_DATE           01/01/2020
START_TIME           00:00:00
END_DATE             01/01/2020
END_TIME             06:00:00
WET_STEP             00:01:00
DRY_STEP             00:01:00
ROUTING_STEP         60
REPORT_STEP          00:15:00

[RAINGAGES]
;;Name  Format     Interval  SCF  Source
G1      INTENSITY  0:15      1.0  TIMESERIES  RAIN

[SUBCATCHMENTS]
;;Name  Gage  Outlet  Area  %Imperv  Width  %Slope  CurbLen
S1      G1    O1      10    50       500    1       0

[SUBAREAS]
;;Subcatch  N-Imperv  N-Perv  S-Imperv  S-Perv  PctZero  RouteTo
S1          0.012     0.15    0.1       0.2     25       OUTLET

[INFILTRATION]
;;Subcatch  MaxRate  MinRate  Decay  DryTime  MaxInfil
S1          3        0.5      4      7        0

[POLLUTANTS]
;;Name  Units  Crain  Cgw  Crdii  Kdecay  SnowOnly  CoPollut  CoFrac  Cdwf  Cinit
TSS     MG/L   0      0    0      0       NO        *         0       0     0

[LANDUSES]
;;Name
RES
COM

[COVERAGES]
;;Subcatch  LandUse  Percent
S1          RES      60
S1          COM      70

[BUILDUP]
;;LandUse  Pollutant  Function  C1  C2  C3  PerUnit
RES        TSS        NONE      0   0   0   AREA
COM        TSS        NONE      0   0   0   AREA

[WASHOFF]
;;LandUse  Pollutant  Function  C1   C2  SweepRmvl  BmpRmvl
RES        TSS        EMC       100  0   0          0
COM        TSS        EMC       100  0   0          0

[OUTFALLS]
;;Name  Elev  Type  Gated
O1      0     FREE  NO

[TIMESERIES]
;;Name  Date        Time   Value
RAIN    01/01/2020  00:00  1.0
RAIN    01/01/2020  01:00  0.0
