[TITLE]
CRASH-20: conduit C1 starts at an undefined node whose name is 300 characters long

[OPTIONS]
FLOW_UNITS           CFS
FLOW_ROUTING         DYNWAVE
START_DATE           01/01/2020
START_TIME           00:00:00
END_DATE             01/01/2020
END_TIME             01:00:00
REPORT_STEP          00:15:00
ROUTING_STEP         10

[JUNCTIONS]
;;Name  Elev  MaxDepth  InitDepth  SurDepth  Aponded
J1      100   10        0          0         0

[OUTFALLS]
;;Name  Elev  Type
O1      99    FREE

[CONDUITS]
;;Name  From  To  Length  Roughness  InOffset  OutOffset  InitFlow
;; The From node is misspelt (and far too long): an input error, ERROR 209.
C1      N01234567890123456789012345678901234567890123456789012345678901234567890123456789012345678901234567890123456789012345678901234567890123456789012345678901234567890123456789012345678901234567890123456789012345678901234567890123456789012345678901234567890123456789012345678901234567890123456789012345678  O1  400     0.013      0         0         0

[XSECTIONS]
;;Link  Shape     Geom1  Geom2  Geom3  Geom4  Barrels
C1      CIRCULAR  1.5    0      0      0      1
