[TITLE]
IO-33: [FILES] has a misspelt mode: SVAE instead of SAVE

[OPTIONS]
FLOW_UNITS           CFS
FLOW_ROUTING         KINWAVE
START_DATE           01/01/2020
START_TIME           00:00:00
REPORT_START_DATE    01/01/2020
REPORT_START_TIME    00:00:00
END_DATE             01/01/2020
END_TIME             06:00:00
REPORT_STEP          00:15:00
WET_STEP             00:05:00
DRY_STEP             01:00:00
ROUTING_STEP         30

[JUNCTIONS]
;;Name Elev MaxDepth InitDepth SurDepth Aponded
J1   10   5   0   0   0

[OUTFALLS]
O1   0   FREE   NO

[CONDUITS]
;;Name From To Length Roughness InOffset OutOffset
C1   J1   O1   100   0.013   0   0   0   0

[XSECTIONS]
C1   CIRCULAR   1   0   0   0   1

[INFLOWS]
;;Node Constituent Series Type Mfactor Sfactor Baseline
J1   FLOW   ""   FLOW   1.0   1.0   1.0

[FILES]
SVAE HOTSTART "IO-33.hsf"

[REPORT]
NODES ALL
LINKS ALL
