[TITLE]
IO-23: unit hydrograph group UH1 has no rain gage line and the project has no rain gages

[OPTIONS]
FLOW_UNITS       CFS
INFILTRATION     HORTON
FLOW_ROUTING     KINWAVE
START_DATE       01/01/2020
START_TIME       00:00:00
END_DATE         01/03/2020
END_TIME         00:00:00
REPORT_STEP      01:00:00
WET_STEP         00:15:00
DRY_STEP         01:00:00
ROUTING_STEP     60

[TIMESERIES]
;; 1.0 in in the first hour
TS1  01/01/2020  00:00  1.0
TS1  01/01/2020  01:00  0.0

[HYDROGRAPHS]
;; The "UH1  G1" line that names the group's rain gage is missing
UH1  ALL  SHORT  0.1  1  2

[RDII]
;;Node  UHgroup  SewerArea(ac)
J1      UH1      100

[JUNCTIONS]
J1  0  10

[OUTFALLS]
O1  -1  FREE

[CONDUITS]
C1  J1  O1  100  0.01  0  0

[XSECTIONS]
C1  CIRCULAR  2  0  0  0  1
