[TITLE]
IO-52: a valid model (J1 -> C1 -> O1). The tests run it with a binary results
file path in a directory that does not exist, so the results file cannot be
opened when the simulation starts.

[OPTIONS]
FLOW_UNITS           CFS
INFILTRATION         HORTON
FLOW_ROUTING         DYNWAVE
START_DATE           01/01/2020
START_TIME           00:00:00
REPORT_START_DATE    01/01/2020
REPORT_START_TIME    00:00:00
END_DATE             01/01/2020
END_TIME             02:00:00
REPORT_STEP          00:05:00
WET_STEP             00:05:00
DRY_STEP             00:05:00
ROUTING_STEP         0:00:30

[JUNCTIONS]
;;Name  Elev  MaxDepth  InitDepth  SurDepth  Aponded
J1      10    5         0          0         0

[OUTFALLS]
;;Name  Elev  Type
O1      8     FREE

[CONDUITS]
;;Name  From  To  Length  Roughness  InOffset  OutOffset  InitFlow
C1      J1    O1  400     0.013      0         0         0

[XSECTIONS]
;;Link  Shape     Geom1  Geom2  Geom3  Geom4  Barrels
C1      CIRCULAR  1.5    0      0      0      1

[INFLOWS]
;;Node  Constituent  TimeSeries  Type  Mfactor  Sfactor  Baseline
J1      FLOW         ""          FLOW  1.0      1.0      2.0

[REPORT]
INPUT NO
